lattice_vector     18.97210800      0.00000000      0.00000000
lattice_vector     -9.48606000     16.43033800      0.00000000
lattice_vector      0.00000000      0.00000000     30.00002500
atom       0.07797439      0.20285803     -0.05251252 Mo
atom       0.08379370      2.02881874      1.51518969 S
atom       0.07302231      2.02876475     -1.61758277 S
atom      -1.50988924      2.93921676     -0.04750447 Mo
atom      -1.50547350      4.76407722      1.52183064 S
atom      -1.50700426      4.76482867     -1.61343558 S
atom      -3.09000129      5.67524593     -0.04689283 Mo
atom      -3.08864408      7.50170318      1.52351224 S
atom      -3.08591533      7.50257594     -1.61207756 S
atom      -4.67041726      8.41054061     -0.04739881 Mo
atom      -4.66480640     10.24355083      1.51783671 S
atom      -4.66509041     10.23800321     -1.61562246 S
atom      -6.24634680     11.15276943     -0.05182414 Mo
atom      -6.23472639     12.98922121      1.50749651 S
atom      -6.24757036     12.97569619     -1.62510476 S
atom      -7.82453982     13.89421497     -0.05590204 Mo
atom      -7.81093082     15.72582103      1.50559342 S
atom      -7.83186507     15.71808696     -1.62659324 S
atom       3.25169771      0.20673343     -0.07578261 Mo
atom       3.27923595      2.03266298      1.48895320 S
atom       3.23093057      2.02694344     -1.64750486 S
atom       1.66651185      2.94003797     -0.05943760 Mo
atom       1.67794446      4.76809300      1.50799029 S
atom       1.64786559      4.76311651     -1.62950753 S
atom       0.07806798      5.67789744     -0.04988416 Mo
atom       0.08966076      7.50859911      1.51523363 S
atom       0.06566296      7.49984041     -1.62363944 S
atom      -1.50427642      8.41767407     -0.04603596 Mo
atom      -1.49897425     10.25371018      1.51448877 S
atom      -1.50826157     10.23865394     -1.62114682 S
atom      -3.08226894     11.16092749     -0.05372395 Mo
atom      -3.06784225     13.00826132      1.49949300 S
atom      -3.08161793     12.97516183     -1.63657752 S
atom      -4.65538971     13.89935460     -0.07162782 Mo
atom      -4.61928064     15.74695077      1.46822598 S
atom      -4.66993007     15.71216073     -1.65774369 S
atom       6.43852875      0.21844390     -0.13767502 Mo
atom       6.50167450      2.02876613      1.41223309 S
atom       6.40456268      2.04012800     -1.72496491 S
atom       4.84232276      2.93770436     -0.10929350 Mo
atom       4.84807555      4.75410992      1.46173009 S
atom       4.81007129      4.76525397     -1.67084282 S
atom       3.24524276      5.67609294     -0.08190656 Mo
atom       3.24849177      7.50437920      1.47565868 S
atom       3.23575963      7.50575853     -1.64905264 S
atom       1.65758295      8.41748217     -0.07438038 Mo
atom       1.65825461     10.24116077      1.48978857 S
atom       1.65392199     10.24688071     -1.63820717 S
atom       0.07654991     11.16154938     -0.06442929 Mo
atom       0.07642397     13.00557016      1.49098302 S
atom       0.07778078     12.97820120     -1.64297615 S
atom      -1.49405474     13.91331830     -0.08717210 Mo
atom      -1.45672058     15.80972528      1.43973439 S
atom      -1.47697315     15.70815602     -1.70603585 S
atom       9.56288258      0.25832004     -0.17577115 Mo
atom       9.57416629      2.02117633     -1.76843431 S
atom       8.02854144      2.90862261     -0.20250744 Mo
atom       8.01410750      4.67762373      1.39248192 S
atom       7.97109973      4.75032470     -1.72964040 S
atom       6.40885058      5.66292774     -0.12034204 Mo
atom       6.40937533      7.47256540      1.47355585 S
atom       6.40093288      7.50963009     -1.66468455 S
atom       4.82505592      8.41276103     -0.08287712 Mo
atom       4.81594104     10.23305309      1.49907698 S
atom       4.81909770     10.24928543     -1.63771030 S
atom       3.23548465     11.15983636     -0.06800975 Mo
atom       3.22610086     12.99866637      1.49386744 S
atom       3.23530729     12.98303018     -1.64070989 S
atom       1.64917464     13.91144187     -0.08380637 Mo
atom       1.60504069     15.80306511      1.44526035 S
atom       1.64028872     15.71228146     -1.69621526 S
atom      12.68968090      0.22239672     -0.11624412 Mo
atom      12.62340565      2.02803341      1.44926846 S
atom      12.72392738      2.04915522     -1.69201613 S
atom      11.09407977      2.90928733     -0.17111204 Mo
atom      11.08672511      4.67963271      1.43886789 S
atom      11.16889058      4.74562664     -1.70181148 S
atom       9.56320429      5.63488248     -0.13835087 Mo
atom       9.55392256      7.44666752      1.46781353 S
atom       9.56904812      7.50623080     -1.66008734 S
atom       7.98169313      8.40139441     -0.08438013 Mo
atom       7.97770502     10.22064633      1.49920671 S
atom       7.98303746     10.24579771     -1.63341277 S
atom       6.39821545     11.15294899     -0.06321655 Mo
atom       6.38781991     12.98273816      1.50443103 S
atom       6.40190360     12.98245836     -1.62861940 S
atom       4.81006621     13.90012442     -0.07144594 Mo
atom       4.77678728     15.73964570      1.48001007 S
atom       4.82149552     15.72202059     -1.64604546 S
atom      15.87588589      0.20658642     -0.06329497 Mo
atom      15.85847128      2.02621460      1.50827075 S
atom      15.88745295      2.03236788     -1.62737492 S
atom      14.28516832      2.93867241     -0.07445945 Mo
atom      14.28068018      4.75304295      1.50492650 S
atom      14.31325448      4.76718480     -1.63076130 S
atom      12.71297813      5.65979438     -0.08015126 Mo
atom      12.70577589      7.47651252      1.50448086 S
atom      12.73219990      7.50108877     -1.63131896 S
atom      11.14164231      8.40161531     -0.06980723 Mo
atom      11.13924960     10.22540630      1.50760474 S
atom      11.14706626     10.24127244     -1.62477139 S
atom       9.56213629     11.14921218     -0.05772023 Mo
atom       9.56266214     12.97782871      1.51094418 S
atom       9.56313401     12.98037899     -1.62148594 S
atom       7.97883973     13.89422632     -0.05537420 Mo
atom       7.97148989     15.72259979      1.51004940 S
atom       7.98211682     15.72128890     -1.62215032 S


