# 
# This is the geometry file that corresponds to the current relaxation step.
# If you do not want this file to be written, set the "write_restart_geometry" flag to .false.
#  aims_uuid : C197136E-64FD-46DF-A8CE-83B211B388FE                                                                        
# 
lattice_vector      2.44750904      0.00000000      0.00000000
  constrain_relaxation z
lattice_vector      1.22693982      2.12512210      0.00000000
  constrain_relaxation z
lattice_vector      0.00000000      0.00000000    100.00000000
  constrain_relaxation .true.
atom      -0.00026097      0.00159108     50.00000000 C
atom       1.22608892      0.70736805     50.00000000 C
# 
# What follows is the current estimated Hessian matrix constructed by the BFGS algorithm.
# This is NOT the true Hessian matrix of the system.
# If you do not want this information here, switch it off using the "hessian_to_restart_geometry" keyword.
# 
trust_radius             0.0031945427
hessian_file
