lattice_vector     13.54000000      0.00000000      0.00000000
lattice_vector      6.77000000     11.72598000      0.00000000
lattice_vector      0.00000000      0.00000000     84.00000000
atom       0.27080677      0.00001173     29.41080481 Rh
atom       2.97907757      0.00001173     29.41080481 Rh
atom       5.68734837      0.00001173     29.41080481 Rh
atom       8.39563271      0.00001173     29.41080481 Rh
atom      11.10390351      0.00001173     29.41080481 Rh
atom       1.62494894      2.34545477     29.41080481 Rh
atom       4.33321974      2.34545477     29.41080481 Rh
atom       7.04149054      2.34545477     29.41080481 Rh
atom       9.74977488      2.34545477     29.41080481 Rh
atom      12.45804568      2.34545477     29.41080481 Rh
atom       2.97909111      4.69089780     29.41080481 Rh
atom       5.68736191      4.69089780     29.41080481 Rh
atom       8.39563271      4.69089780     29.41080481 Rh
atom      11.10391705      4.69089780     29.41080481 Rh
atom      13.81218785      4.69089780     29.41080481 Rh
atom       4.33323328      7.03634084     29.41080481 Rh
atom       7.04150408      7.03634084     29.41080481 Rh
atom       9.74977488      7.03634084     29.41080481 Rh
atom      12.45805922      7.03634084     29.41080481 Rh
atom      15.16633002      7.03634084     29.41080481 Rh
atom       5.68736868      9.38177216     29.41080481 Rh
atom       8.39563948      9.38177216     29.41080481 Rh
atom      11.10391028      9.38177216     29.41080481 Rh
atom      13.81219462      9.38177216     29.41080481 Rh
atom      16.52046542      9.38177216     29.41080481 Rh
atom       1.62494217      0.78182998     31.63238087 Rh
atom       4.33322651      0.78182998     31.63238087 Rh
atom       7.04149731      0.78182998     31.63238087 Rh
atom       9.74976811      0.78182998     31.63238087 Rh
atom      12.45803891      0.78182998     31.63238087 Rh
atom       2.97907757      3.12726129     31.63238087 Rh
atom       5.68736191      3.12726129     31.63238087 Rh
atom       8.39563271      3.12726129     31.63238087 Rh
atom      11.10390351      3.12726129     31.63238087 Rh
atom      13.81217431      3.12726129     31.63238087 Rh
atom       4.33321297      5.47269261     31.63238087 Rh
atom       7.04149731      5.47269261     31.63238087 Rh
atom       9.74976811      5.47269261     31.63238087 Rh
atom      12.45803891      5.47269261     31.63238087 Rh
atom      15.16630971      5.47269261     31.63238087 Rh
atom       5.68735514      7.81813565     31.63238087 Rh
atom       8.39563948      7.81813565     31.63238087 Rh
atom      11.10391028      7.81813565     31.63238087 Rh
atom      13.81218108      7.81813565     31.63238087 Rh
atom      16.52045188      7.81813565     31.63238087 Rh
atom       7.04149731     10.16357869     31.63238087 Rh
atom       9.74978165     10.16357869     31.63238087 Rh
atom      12.45805245     10.16357869     31.63238087 Rh
atom      15.16632325     10.16357869     31.63238087 Rh
atom      17.87459405     10.16357869     31.63238087 Rh
atom       2.98029578      1.56440464     33.80873677 Rh
atom       5.68790348      1.56345737     33.80740778 Rh
atom       8.39467579      1.56603580     33.81019343 Rh
atom      11.10435868      1.56418588     33.80773624 Rh
atom      13.81095872      1.56401730     33.80842608 Rh
atom       4.33240692      3.90949360     33.80673299 Rh
atom       7.04261716      3.91001264     33.81079530 Rh
atom       9.74981448      3.90889624     33.80810066 Rh
atom      12.45734801      3.90973014     33.80855613 Rh
atom      15.16592220      3.90938947     33.80777506 Rh
atom       5.68880009      6.25335119     33.80934890 Rh
atom       8.39551164      6.25431518     33.80801468 Rh
atom      11.10617936      6.25585446     33.81366836 Rh
atom      13.81276529      6.25426563     33.81225918 Rh
atom      16.51942597      6.25584128     33.81030053 Rh
atom       7.04208181      8.60030091     33.80787755 Rh
atom       9.74980571      8.59921594     33.80826419 Rh
atom      12.45741238      8.60091571     33.81096191 Rh
atom      15.16793054      8.60099876     33.80848390 Rh
atom      17.87434353      8.60025470     33.80712524 Rh
atom       8.39525854     10.94436440     33.80857087 Rh
atom      11.10410596     10.94516044     33.80791624 Rh
atom      13.81265611     10.94459245     33.80949912 Rh
atom      16.52053903     10.94516381     33.80751726 Rh
atom      19.22761982     10.94504051     33.81045621 Rh
atom       0.27230253      0.00130714     35.98717495 Rh
atom       2.97716061     -0.00394078     35.98450398 Rh
atom       5.68422175     -0.00318183     35.98049053 Rh
atom       8.40177646      0.00083180     35.98176442 Rh
atom      11.10504565      0.00169616     35.98853241 Rh
atom       1.62059572      2.34658889     35.98407658 Rh
atom       4.32819233      2.34272185     35.98811886 Rh
atom       7.04865469      2.34160830     35.99489759 Rh
atom       9.75521239      2.34683113     35.98544583 Rh
atom      12.45811121      2.34550268     35.98846638 Rh
atom       2.97367666      4.69070095     35.98059299 Rh
atom       5.68758223      4.69902438     35.99105300 Rh
atom       8.40237545      4.69491508     35.98414439 Rh
atom      11.10307973      4.68762905     35.98660987 Rh
atom      13.81150645      4.68522683     35.98476549 Rh
atom       4.33629351      7.04204778     35.98153944 Rh
atom       7.04506006      7.04044945     35.98502296 Rh
atom       9.74606603      7.03770018     35.98634846 Rh
atom      12.45156004      7.03325312     36.00028056 Rh
atom      15.17186967      7.03427139     35.99915963 Rh
atom       5.68937807      9.38198078     35.98887140 Rh
atom       8.39527785      9.38205558     35.98875058 Rh
atom      11.09789892      9.38480888     35.98478111 Rh
atom      13.81241109      9.38723313     35.99196960 Rh
atom      16.52874507      9.38678610     35.98283312 Rh
