#=======================================================
# FHI-aims file: ./geometry.in
# Created using the Atomic Simulation Environment (ASE)
# Wed Mar 18 11:21:17 2026
#=======================================================
lattice_vector 15.3275387262473330 -0.0000000000000014 0.0000000000000000 
lattice_vector -1.7693688334301103 7.1261517272102521 0.0000000000000000 
lattice_vector 0.0000000000000000 0.0000000000000000 100.0000000000000000 
atom_frac -0.1917064156333660 0.1833452509219865 0.0585401968862107 C
atom_frac -0.2381888749476535 0.0282165627211658 0.0513141799667836 C
atom_frac -0.1910118246441180 -0.0969855100551626 0.0453663658552832 C
atom_frac -0.0950677716467752 -0.0500225736817223 0.0457212856425539 C
atom_frac -0.0504902372151138 0.1347299146163315 0.0498510554816871 C
atom_frac -0.0965394557988635 0.2276809600798358 0.0589879903317535 C
atom_frac -0.2371009125340682 -0.2852661595149198 0.0425909246957572 C
atom_frac -0.1908132463173678 -0.3929873900208042 0.0351588079346348 C
atom_frac -0.0975393198342110 -0.3637346627302547 0.0376156728718062 C
atom_frac -0.0487335997327024 -0.1766515341065059 0.0398662653498561 C
atom_frac 0.0494331983135534 -0.1234735974832427 0.0387157098692911 C
atom_frac 0.0949711606945881 0.0520119832758585 0.0442974930426670 C
atom_frac 0.0494776346307478 0.1840834950291022 0.0495241486071040 C
atom_frac 0.1902723227662775 0.1103997426563124 0.0429818573473093 C
atom_frac 0.2359919553187056 0.2926805653231912 0.0476100321076289 C
atom_frac 0.1926815142034196 0.3862916982841219 0.0568083841493327 C
atom_frac 0.0978764453015809 0.3318924296704247 0.0576164134027555 C
atom_frac 0.0995824733190553 -0.2526104930596543 0.0349997261421586 C
atom_frac 0.1939108051717030 -0.2142897705444712 0.0371271406169882 C
atom_frac 0.2381135658049110 -0.0251841049981977 0.0394470115563745 C
atom_frac 0.3353595110351652 0.0339913295726995 0.0374855920208319 C
atom_frac 0.3795032818062517 0.2004338626786429 0.0439802150218196 N
atom_frac 0.3379675501392627 0.3432066155963668 0.0489011504637742 C
atom_frac -0.3373121740148917 -0.0285326558596296 0.0529731718280111 C
atom_frac -0.3801294435573296 -0.1956958804026382 0.0464242533982122 N
atom_frac -0.3374987674354232 -0.3394339456807526 0.0415061577143072 C
atom_frac 0.3764226157817305 0.4432087688771947 0.0581296862341791 O
atom_frac 0.3772879665310123 -0.0670574565172744 0.0317852211663770 O
atom_frac -0.3743046557603654 -0.4380845990527820 0.0321042809001705 O
atom_frac -0.3806625788618877 0.0717051638058002 0.0584693229088000 O
atom_frac 0.4707347681814921 0.2623938461587945 0.0416954975921324 C
atom_frac -0.4719741135306269 -0.2537512235772322 0.0479166527958449 C
atom_frac -0.2287569247110608 0.2992295853736023 0.0602984841752119 H
atom_frac -0.0660310187267113 0.3918980167717117 0.0582193044165020 H
atom_frac -0.2260752724762992 -0.5480101841927897 0.0335770623853767 H
atom_frac -0.0628448399809215 -0.4461416131189488 0.0298124606423662 H
atom_frac 0.2229126728736834 0.5479591582391969 0.0566083724561362 H
atom_frac 0.0627640341776805 0.4564359720634365 0.0578348588401440 H
atom_frac 0.0693941057919797 -0.3642201210326542 0.0312744049062125 H
atom_frac 0.2282905235332200 -0.2775251754369233 0.0279899996594426 H
atom_frac 0.5022408133070039 0.1939951549459022 0.0501752990826563 H
atom_frac 0.4864514150316822 0.3703054767725742 0.0403385542882233 H
atom_frac 0.4904071657036539 0.1700899631164052 0.0338668580098313 H
atom_frac -0.4971797936184296 -0.1271120771186239 0.0450004055043256 H
atom_frac -0.4943293622557337 -0.3295813479972379 0.0383990690075090 H
atom_frac -0.4875317999289154 -0.3054879759786386 0.0545200582195671 H
atom_frac 0.0000290330628370 0.0001841381042284 -0.0002080048443684 C
atom_frac -0.0475903184131608 0.1426902231641390 0.0012789580034751 C
atom_frac 0.4288925828448325 0.0492717963865063 -0.0029614039012340 C
atom_frac 0.3809315893411592 0.1901029406712668 0.0019844943550695 C
atom_frac 0.2861310644598598 0.1438893009193590 -0.0014445069992671 C
atom_frac 0.2380662423227874 0.2849969437750902 0.0015516818829211 C
atom_frac 0.1427924116406764 0.2377506787619568 -0.0010680502551324 C
atom_frac 0.0951061986571304 0.3808258689704784 0.0017987986871750 C
atom_frac 0.0000447408866938 0.3323579942749472 -0.0020849115385285 C
atom_frac -0.0475491841869476 0.4766996942498284 0.0019343249574373 C
atom_frac 0.8572796213563529 0.0953454702902207 -0.0011904572279481 C
atom_frac 0.8093972176760785 0.2381314724603853 0.0015955607178392 C
atom_frac 0.7141756289574231 0.1906243330333659 -0.0020624141108434 C
atom_frac 0.6666086509751028 0.3325601296056886 0.0017234633940824 C
atom_frac 0.5715814985524053 0.2860281633834627 -0.0008127654659699 C
atom_frac 0.5239112358464386 0.4284211202152701 0.0020705001759163 C
atom_frac 0.4290202135197689 0.3808471879152396 -0.0011959512875599 C
atom_frac 0.3807350279512965 0.5230941976241251 0.0005081497546966 C
atom_frac 0.2855163299599898 0.4750426213929045 -0.0015302233862151 C
atom_frac 0.2373997767262425 0.6177862770939244 0.0008113475698474 C
atom_frac 0.1424113277857329 0.5706387424454645 -0.0017474749665871 C
atom_frac 0.0950539477153624 0.7143668394990839 -0.0007409717572060 C
atom_frac -0.0003909541390549 0.6666958623517243 -0.0023516121886076 C
atom_frac -0.0478022044935335 0.8091331662622500 0.0008788729905890 C
atom_frac 0.8570952778526073 0.4275852206068675 -0.0013384812636064 C
atom_frac 0.8093094727564228 0.5709273392668474 -0.0011721681078862 C
atom_frac 0.7142687312623918 0.5236544763610647 -0.0005198118182646 C
atom_frac 0.6665303665196940 0.6668562461910843 0.0006353741785775 C
atom_frac 0.5711498663467297 0.6185955210539186 -0.0012437350700644 C
atom_frac 0.5243151688576465 0.7623582747484889 0.0010450576559886 C
atom_frac 0.4280603614852523 0.7145483337233897 0.0012106638651785 C
atom_frac 0.3804654875574993 0.8560710035217355 -0.0004906541894291 C
atom_frac 0.2856073284985770 0.8094344638593639 0.0000000000000000 C
    constrain_relaxation .true.
atom_frac 0.2381628633412237 0.9525882939755623 0.0000000000000000 C
    constrain_relaxation .true.
atom_frac 0.1427886597562200 0.9058212029941051 -0.0034043554851921 C
atom_frac 0.0955455338616301 1.0465085861977232 0.0020466966363024 C
atom_frac 0.8572743466861261 0.7640878038169723 -0.0024628598085994 C
atom_frac 0.8098414686984102 0.9045050828247538 0.0021081722080109 C
atom_frac 0.7142348882437072 0.8578672094208490 -0.0007230801586981 C
atom_frac 0.6664701435475046 1.0004729913918082 0.0012890537347936 C
atom_frac 0.5715820214490870 0.9531710818691549 -0.0015232310618609 C
atom_frac 0.5236251183721979 1.0955006660016600 0.0020800570769653 C
