# 
# This is the geometry file that corresponds to the current relaxation step.
# If you do not want this file to be written, set the "write_restart_geometry" flag to .false.
#  aims_uuid : AA320453-7427-4F1E-A866-E4366CB956CB                                                                        
# 
lattice_vector      8.76910894     -7.89574116      0.00000000
  constrain_relaxation z
lattice_vector      8.76910894      7.89574116      0.00000000
  constrain_relaxation z
lattice_vector      0.00000000      0.00000000    100.00000000
  constrain_relaxation .true.
atom       2.87936113      2.42754441      0.00717961 C
atom       3.57644244      1.22514556      0.00095862 C
atom       2.86421765      0.00000033      0.00049836 C
atom       1.43120622      0.00000045      0.00405928 C
atom       0.73331163      1.25063030      0.00580747 C
atom       1.48178582      2.43660408      0.00804054 C
atom       3.57644320     -1.22514422      0.00097969 C
atom       2.87936253     -2.42754319      0.00722010 C
atom       1.48178728     -2.43660388      0.00807322 C
atom       0.73331243     -1.25063038      0.00581662 C
atom      -0.73331180     -1.25063093      0.00580728 C
atom      -1.43120632     -0.00000095      0.00405924 C
atom      -0.73331249      1.25062967      0.00581443 C
atom      -2.86421775     -0.00000135      0.00049905 C
atom      -3.57644295      1.22514350      0.00097892 C
atom      -2.87936224      2.42754247      0.00721433 C
atom      -1.48178712      2.43660316      0.00806570 C
atom      -1.48178632     -2.43660453      0.00803708 C
atom      -2.87936175     -2.42754517      0.00717850 C
atom      -3.57644302     -1.22514625      0.00096064 C
atom      -5.05912443     -1.24919140     -0.00384900 C
atom      -5.70926952      0.00000056     -0.03358290 N
atom      -5.05912428      1.24919302     -0.00382926 C
atom       5.05912373      1.24919237     -0.00385493 C
atom       5.70926925      0.00000044     -0.03358888 N
atom       5.05912464     -1.24919207     -0.00383103 C
atom      -5.70494203      2.29500896      0.01293897 O
atom      -5.70494992     -2.29500287      0.01290228 O
atom       5.70494467     -2.29500658      0.01293820 O
atom       5.70494709      2.29500521      0.01289298 O
atom      -7.17786456     -0.00000825     -0.05748292 C
atom       7.17786423      0.00000612     -0.05749323 C
atom       3.44774093      3.35795683      0.00979446 H
atom       0.97774827      3.40142163      0.01082196 H
atom       3.44774326     -3.35795497      0.00985426 H
atom       0.97775047     -3.40142174      0.01086955 H
atom      -3.44774308      3.35795417      0.00984570 H
atom      -0.97775026      3.40142098      0.01085708 H
atom      -0.97774879     -3.40142215      0.01081493 H
atom      -3.44774126     -3.35795780      0.00979247 H
atom      -7.57692980     -0.00016894      0.96646877 H
atom      -7.51237944      0.90638635     -0.56905870 H
atom      -7.51237724     -0.90625373     -0.56932716 H
atom       7.51237514      0.90628232     -0.56928360 H
atom       7.51237779     -0.90635775     -0.56912494 H
atom       7.57693256      0.00010121      0.96645726 H
# 
# What follows is the current estimated Hessian matrix constructed by the BFGS algorithm.
# This is NOT the true Hessian matrix of the system.
# If you do not want this information here, switch it off using the "hessian_to_restart_geometry" keyword.
# 
trust_radius             0.2000000030
hessian_file
